12 16 9 10
19 17 19 4 4 9 5 1 2 16 7 10 17 2 2 11 
4.22 10.66 0.12 14.52 4.59 3.1 13.86 13.05 7.14 14.61 1.37 10.38 12.99 14.29 15.55 6.48 
6.35 9.7 6.37 13.28 1.05 1.47 6.31 10.49 0.01 1.92 15.67 3.53 8.86 7.17 7.85 4.71 
3.73 12.74 6.21 9.57 13.98 11.37 12.76 1.25 10.49 2.24 15.67 6.3 13.13 3.5 5.68 14.51 
3.67 9.48 13.21 2.32 7.43 15.12 7.81 14.12 1.62 13.92 2.54 12.72 11.85 2.54 4.03 4.72 
13.53 10.19 7.6 2.09 3.8 8.52 8.38 8.87 10.65 9.59 10.31 0.28 12.35 15.96 11.08 2.22 
3.69 10.87 0.23 13.6 3.19 14.99 5.14 0.83 2.85 10.47 1.91 11.86 8.71 12.57 0.47 11.9 
5.7 2.07 12.57 2.13 8.22 4.32 2.88 9.63 1.5 14.08 10.99 7.53 15.11 7.48 5.14 0.17 
0.69 13.94 2.17 4.53 9.98 3.74 1.52 13.99 14.45 8.22 0.72 13.9 0.86 1.95 9.07 4.18 
7.52 13.72 10.39 2.46 4.92 3.12 5.28 10.61 11.03 2.98 12.82 0.49 7.18 2.4 12.79 0.68 
8 8 8 8 8 8 8 8 8 8 8 8 8 8 8 8 
10.89 9.2 5.8 0.51 10.97 13.68 11.56 5.19 4.06 2.05 8.64 11.95 6.48 2.31 5.62 1.75 
8.81 4.13 9.1 14.42 4.29 11.96 12.12 3.78 15.44 9.89 10.06 7.64 11.14 5.23 6.57 2.14 
1 1 1 1 1 1 1 1 1 1 1 1 1 1 1 1 
1 1 1 1 1 1 1 1 1 1 1 1 1 1 1 1 
1 1 1 1 1 1 1 1 1 1 1 1 1 1 1 1 
1 1 1 1 1 1 1 1 1 1 1 1 1 1 1 1 
1 1 1 1 1 1 1 1 1 1 1 1 1 1 1 1 
1 1 1 1 1 1 1 1 1 1 1 1 1 1 1 1 
1 1 1 1 1 1 1 1 1 1 1 1 1 1 1 1 
1 1 1 1 1 1 1 1 1 1 1 1 1 1 1 1 
1 1 1 1 1 1 1 1 1 1 1 1 1 1 1 1 
1 1 1 1 1 1 1 1 1 1 1 1 1 1 1 1 
1 1 1 1 1 1 1 1 1 1 1 1 1 1 1 1 
1 1 1 1 1 1 1 1 1 1 1 1 1 1 1 1 
0.01 0.01 0.01 0.01 0.01 0.01 0.01 0.01 0.01 0.01 0.01 0.01 0.01 0.01 0.01 0.01 
0.02 0.02 0.02 0.02 0.02 0.02 0.02 0.02 0.02 0.02 0.02 0.02 0.02 0.02 0.02 0.02 
0.03 0.03 0.03 0.03 0.03 0.03 0.03 0.03 0.03 0.03 0.03 0.03 0.03 0.03 0.03 0.03 
0.04 0.04 0.04 0.04 0.04 0.04 0.04 0.04 0.04 0.04 0.04 0.04 0.04 0.04 0.04 0.04 
0.05 0.05 0.05 0.05 0.05 0.05 0.05 0.05 0.05 0.05 0.05 0.05 0.05 0.05 0.05 0.05 
0.06 0.06 0.06 0.06 0.06 0.06 0.06 0.06 0.06 0.06 0.06 0.06 0.06 0.06 0.06 0.06 
0.07 0.07 0.07 0.07 0.07 0.07 0.07 0.07 0.07 0.07 0.07 0.07 0.07 0.07 0.07 0.07 
0.08 0.08 0.08 0.08 0.08 0.08 0.08 0.08 0.08 0.08 0.08 0.08 0.08 0.08 0.08 0.08 
0.09 0.09 0.09 0.09 0.09 0.09 0.09 0.09 0.09 0.09 0.09 0.09 0.09 0.09 0.09 0.09 
0.1 0.1 0.1 0.1 0.1 0.1 0.1 0.1 0.1 0.1 0.1 0.1 0.1 0.1 0.1 0.1 
0.5 0.5 0.5 0.5 0.5 0.5 0.5 0.5 0.5 0.5 0.5 0.5 0.5 0.5 0.5 0.5 
1 1 1 1 1 1 1 1 1 1 1 1 1 1 1 1 
